sat
(:card2bv-rewrites        1
 :elim-unconstrained      3
 :max-memory              178.01
 :memory                  54.19
 :num-allocs              5727524468.00
 :rlimit-count            13034715
 :sat-backjumps           44796
 :sat-backtracks          1345
 :sat-conflicts           46141
 :sat-decisions           228261
 :sat-del-clause          321068
 :sat-elim-bool-vars-res  52936
 :sat-elim-clauses        1854
 :sat-elim-literals       8004
 :sat-gc-clause           24260
 :sat-minimized-lits      596716
 :sat-mk-clause-2ary      164147
 :sat-mk-clause-3ary      93880
 :sat-mk-clause-nary      495532
 :sat-mk-var              110366
 :sat-probing-assigned    546
 :sat-propagations-2ary   2466441
 :sat-propagations-nary   7465522
 :sat-restarts            4307
 :sat-scc-elim-binary     2413
 :sat-scc-elim-vars       285
 :sat-subs-resolution     6459
 :sat-subs-resolution-dyn 19747
 :sat-subsumed            68787
 :sat-units               601
 :time                    6.55
 :total-time              6.57)
